Instance Name : r111
Date : 2022-07-18
Solution
Route 1 : 28 76 79 78 29 24 68 80 12
Route 2 : 52 88 62 11 63 90 10 31
Route 3 : 27 69 30 51 9 35 34 3 77 50
Route 4 : 95 92 98 85 99 97 87 6 96 94 13
Route 5 : 59 61 44 14 38 86 16 91 100 37 93
Route 6 : 1 33 81 71 65 66 20 32 70
Route 7 : 21 72 75 23 67 39 55 25 54
Route 8 : 42 57 15 43 41 22 56 4 26
Route 9 : 53 40 73 74 2 58
Route 10 : 18 45 8 84 17 5 83 60 89
Route 11 : 7 19 64 49 36 46 47 48 82
